\ LP format - for model browsing. Use MPS format to capture full model detail.
Minimize
  0 a_x_1__2 + 0 a_y_1__2 + 0 b_a_1[0,0] + 0 b_a_1[0,1] + 0 b_a_1[0,2]
   + 0 b_a_2[0,0] + 0 b_a_2[0,1] + 0 b_a_2[0,2] + 0 b_a_5[0,0]
   + 0 b_a_5[0,1] + 0 b_a_5[0,2] + 0 b_g_9[0,0] + 0 b_g_9[0,1]
   + 0 b_g_9[0,2] + 0 b_r_15[0,0] + 0 b_r_15[0,1] + 0 b_r_15[0,2]
   + 0 b_r_16[0,0] + 0 b_r_16[0,1] + 0 b_r_16[0,2] + 0 b_r_21[0,0]
   + 0 b_r_21[0,1] + 0 b_r_21[0,2] + 0 b_r_26[0,0] + 0 b_r_26[0,1]
   + 0 b_r_26[0,2] + fuel_x_1__0 + fuel_y_1__0 + 2 fuel_x_1__1
   + 2 fuel_y_1__1 + 2 goal_x_1__0 + 20 goal_y_1__0 + 2 goal_x_1__1
   + 20 goal_y_1__1 + 2 goal_x_1__2 + 20 goal_y_1__2
Subject To
 R0: - d_x_0__0 + d_x_0__1 - 0.5 v_x_0__0 = 0
 R1: - d_y_0__0 + d_y_0__1 - 0.5 v_y_0__0 = 0
 R2: - v_x_0__0 + v_x_0__1 - 0.5 a_x_0__0 = 0
 R3: - v_y_0__0 + v_y_0__1 - 0.5 a_y_0__0 = 0
 R4: - d_x_0__1 + d_x_0__2 - 0.5 v_x_0__1 = 0
 R5: - d_y_0__1 + d_y_0__2 - 0.5 v_y_0__1 = 0
 R6: - v_x_0__1 + v_x_0__2 - 0.5 a_x_0__1 = 0
 R7: - v_y_0__1 + v_y_0__2 - 0.5 a_y_0__1 = 0
 R8: - d_x_1__0 + d_x_1__1 - 0.5 v_x_1__0 = 0
 R9: - d_y_1__0 + d_y_1__1 - 0.5 v_y_1__0 = 0
 R10: - v_x_1__0 + v_x_1__1 - 0.5 a_x_1__0 = 0
 R11: - v_y_1__0 + v_y_1__1 - 0.5 a_y_1__0 = 0
 R12: - d_x_1__1 + d_x_1__2 - 0.5 v_x_1__1 = 0
 R13: - d_y_1__1 + d_y_1__2 - 0.5 v_y_1__1 = 0
 R14: - v_x_1__1 + v_x_1__2 - 0.5 a_x_1__1 = 0
 R15: - v_y_1__1 + v_y_1__2 - 0.5 a_y_1__1 = 0
 R16: b_a = 1
 R17: a_x_0__0 - 10000 b_a_3[0,0] >= -10000.1
 R18: a_x_0__0 - 10000 b_a_3[0,0] <= -0.1001
 R19: a_x_0__1 - 10000 b_a_3[0,1] >= -10000.1
 R20: a_x_0__1 - 10000 b_a_3[0,1] <= -0.1001
 R21: a_x_0__2 - 10000 b_a_3[0,2] >= -10000.1
 R22: a_x_0__2 - 10000 b_a_3[0,2] <= -0.1001
 R23: - a_x_0__0 - 10000 b_a_4[0,0] >= -10000.1
 R24: - a_x_0__0 - 10000 b_a_4[0,0] <= -0.1001
 R25: - a_x_0__1 - 10000 b_a_4[0,1] >= -10000.1
 R26: - a_x_0__1 - 10000 b_a_4[0,1] <= -0.1001
 R27: - a_x_0__2 - 10000 b_a_4[0,2] >= -10000.1
 R28: - a_x_0__2 - 10000 b_a_4[0,2] <= -0.1001
 R29: a_y_0__0 - 10000 b_a_6[0,0] >= -10000.1
 R30: a_y_0__0 - 10000 b_a_6[0,0] <= -0.1001
 R31: a_y_0__1 - 10000 b_a_6[0,1] >= -10000.1
 R32: a_y_0__1 - 10000 b_a_6[0,1] <= -0.1001
 R33: a_y_0__2 - 10000 b_a_6[0,2] >= -10000.1
 R34: a_y_0__2 - 10000 b_a_6[0,2] <= -0.1001
 R35: - a_y_0__0 - 10000 b_a_7[0,0] >= -10000.1
 R36: - a_y_0__0 - 10000 b_a_7[0,0] <= -0.1001
 R37: - a_y_0__1 - 10000 b_a_7[0,1] >= -10000.1
 R38: - a_y_0__1 - 10000 b_a_7[0,1] <= -0.1001
 R39: - a_y_0__2 - 10000 b_a_7[0,2] >= -10000.1
 R40: - a_y_0__2 - 10000 b_a_7[0,2] <= -0.1001
 R41: b_g = 1
 R42: d_x_0__0 - d_x_1__0 - 10000 b_g_10[0,0] >= -9996.394448724535
 R43: d_x_0__0 - d_x_1__0 - 10000 b_g_10[0,0] <= 3.605451275463989
 R44: d_x_0__1 - d_x_1__1 - 10000 b_g_10[0,1] >= -9996.394448724535
 R45: d_x_0__1 - d_x_1__1 - 10000 b_g_10[0,1] <= 3.605451275463989
 R46: d_x_0__2 - d_x_1__2 - 10000 b_g_10[0,2] >= -9996.394448724535
 R47: d_x_0__2 - d_x_1__2 - 10000 b_g_10[0,2] <= 3.605451275463989
 R48: - d_x_0__0 + d_x_1__0 - 10000 b_g_11[0,0] >= -9996.394448724535
 R49: - d_x_0__0 + d_x_1__0 - 10000 b_g_11[0,0] <= 3.605451275463989
 R50: - d_x_0__1 + d_x_1__1 - 10000 b_g_11[0,1] >= -9996.394448724535
 R51: - d_x_0__1 + d_x_1__1 - 10000 b_g_11[0,1] <= 3.605451275463989
 R52: - d_x_0__2 + d_x_1__2 - 10000 b_g_11[0,2] >= -9996.394448724535
 R53: - d_x_0__2 + d_x_1__2 - 10000 b_g_11[0,2] <= 3.605451275463989
 R54: d_y_0__0 - d_y_1__0 - 10000 b_g_12[0,0] >= -9996.394448724535
 R55: d_y_0__0 - d_y_1__0 - 10000 b_g_12[0,0] <= 3.605451275463989
 R56: d_y_0__1 - d_y_1__1 - 10000 b_g_12[0,1] >= -9996.394448724535
 R57: d_y_0__1 - d_y_1__1 - 10000 b_g_12[0,1] <= 3.605451275463989
 R58: d_y_0__2 - d_y_1__2 - 10000 b_g_12[0,2] >= -9996.394448724535
 R59: d_y_0__2 - d_y_1__2 - 10000 b_g_12[0,2] <= 3.605451275463989
 R60: - d_y_0__0 + d_y_1__0 - 10000 b_g_13[0,0] >= -9996.394448724535
 R61: - d_y_0__0 + d_y_1__0 - 10000 b_g_13[0,0] <= 3.605451275463989
 R62: - d_y_0__1 + d_y_1__1 - 10000 b_g_13[0,1] >= -9996.394448724535
 R63: - d_y_0__1 + d_y_1__1 - 10000 b_g_13[0,1] <= 3.605451275463989
 R64: - d_y_0__2 + d_y_1__2 - 10000 b_g_13[0,2] >= -9996.394448724535
 R65: - d_y_0__2 + d_y_1__2 - 10000 b_g_13[0,2] <= 3.605451275463989
 R66: b_r = 1
 R67: - d_y_1__0 - 10000 b_r_17[0,0] >= -9998.5
 R68: - d_y_1__0 - 10000 b_r_17[0,0] <= 1.4999
 R69: - d_y_1__1 - 10000 b_r_17[0,1] >= -9998.5
 R70: - d_y_1__1 - 10000 b_r_17[0,1] <= 1.4999
 R71: - d_y_1__2 - 10000 b_r_17[0,2] >= -9998.5
 R72: - d_y_1__2 - 10000 b_r_17[0,2] <= 1.4999
 R73: d_y_1__0 - 10000 b_r_18[0,0] >= -10004.5
 R74: d_y_1__0 - 10000 b_r_18[0,0] <= -4.5001
 R75: d_y_1__1 - 10000 b_r_18[0,1] >= -10004.5
 R76: d_y_1__1 - 10000 b_r_18[0,1] <= -4.5001
 R77: d_y_1__2 - 10000 b_r_18[0,2] >= -10004.5
 R78: d_y_1__2 - 10000 b_r_18[0,2] <= -4.5001
 R79: d_x_1__0 - 10000 b_r_19[0,0] >= -10066
 R80: d_x_1__0 - 10000 b_r_19[0,0] <= -66.0001
 R81: d_x_1__1 - 10000 b_r_19[0,1] >= -10066
 R82: d_x_1__1 - 10000 b_r_19[0,1] <= -66.0001
 R83: d_x_1__2 - 10000 b_r_19[0,2] >= -10066
 R84: d_x_1__2 - 10000 b_r_19[0,2] <= -66.0001
 R85: - d_x_1__0 - 10000 b_r_20[0,0] >= -9984
 R86: - d_x_1__0 - 10000 b_r_20[0,0] <= 15.9999
 R87: - d_x_1__1 - 10000 b_r_20[0,1] >= -9984
 R88: - d_x_1__1 - 10000 b_r_20[0,1] <= 15.9999
 R89: - d_x_1__2 - 10000 b_r_20[0,2] >= -9984
 R90: - d_x_1__2 - 10000 b_r_20[0,2] <= 15.9999
 R91: d_x_1__0 - 10000 b_r_24[0,0] >= -10016
 R92: d_x_1__0 - 10000 b_r_24[0,0] <= -16.0001
 R93: d_x_1__1 - 10000 b_r_24[0,1] >= -10016
 R94: d_x_1__1 - 10000 b_r_24[0,1] <= -16.0001
 R95: d_x_1__2 - 10000 b_r_24[0,2] >= -10016
 R96: d_x_1__2 - 10000 b_r_24[0,2] <= -16.0001
 R97: - d_y_1__0 - 10000 b_r_25[0,0] >= -10016
 R98: - d_y_1__0 - 10000 b_r_25[0,0] <= -16.0001
 R99: - d_y_1__1 - 10000 b_r_25[0,1] >= -10016
 R100: - d_y_1__1 - 10000 b_r_25[0,1] <= -16.0001
 R101: - d_y_1__2 - 10000 b_r_25[0,2] >= -10016
 R102: - d_y_1__2 - 10000 b_r_25[0,2] <= -16.0001
 R103: d_x_1__0 - 10000 b_r_27[0,0] >= -9998.5
 R104: d_x_1__0 - 10000 b_r_27[0,0] <= 1.4999
 R105: d_x_1__1 - 10000 b_r_27[0,1] >= -9998.5
 R106: d_x_1__1 - 10000 b_r_27[0,1] <= 1.4999
 R107: d_x_1__2 - 10000 b_r_27[0,2] >= -9998.5
 R108: d_x_1__2 - 10000 b_r_27[0,2] <= 1.4999
 R109: - d_x_1__0 - 10000 b_r_28[0,0] >= -10004.5
 R110: - d_x_1__0 - 10000 b_r_28[0,0] <= -4.5001
 R111: - d_x_1__1 - 10000 b_r_28[0,1] >= -10004.5
 R112: - d_x_1__1 - 10000 b_r_28[0,1] <= -4.5001
 R113: - d_x_1__2 - 10000 b_r_28[0,2] >= -10004.5
 R114: - d_x_1__2 - 10000 b_r_28[0,2] <= -4.5001
 R115: d_y_1__0 - 10000 b_r_29[0,0] >= -9984
 R116: d_y_1__0 - 10000 b_r_29[0,0] <= 15.9999
 R117: d_y_1__1 - 10000 b_r_29[0,1] >= -9984
 R118: d_y_1__1 - 10000 b_r_29[0,1] <= 15.9999
 R119: d_y_1__2 - 10000 b_r_29[0,2] >= -9984
 R120: d_y_1__2 - 10000 b_r_29[0,2] <= 15.9999
 R121: - d_y_1__0 - 10000 b_r_30[0,0] >= -10066
 R122: - d_y_1__0 - 10000 b_r_30[0,0] <= -66.0001
 R123: - d_y_1__1 - 10000 b_r_30[0,1] >= -10066
 R124: - d_y_1__1 - 10000 b_r_30[0,1] <= -66.0001
 R125: - d_y_1__2 - 10000 b_r_30[0,2] >= -10066
 R126: - d_y_1__2 - 10000 b_r_30[0,2] <= -66.0001
 R127: a_x_1__0 - fuel_x_1__0 <= 0
 R128: - a_x_1__0 - fuel_x_1__0 <= 0
 R129: a_y_1__0 - fuel_y_1__0 <= 0
 R130: - a_y_1__0 - fuel_y_1__0 <= 0
 R131: a_x_1__1 - fuel_x_1__1 <= 0
 R132: - a_x_1__1 - fuel_x_1__1 <= 0
 R133: a_y_1__1 - fuel_y_1__1 <= 0
 R134: - a_y_1__1 - fuel_y_1__1 <= 0
 R135: d_x_1__0 - goal_x_1__0 <= 3
 R136: - d_x_1__0 - goal_x_1__0 <= -3
 R137: d_y_1__0 - goal_y_1__0 <= 66
 R138: - d_y_1__0 - goal_y_1__0 <= -66
 R139: d_x_1__0 + 0.5 v_x_1__0 - goal_x_1__1 <= 3
 R140: - d_x_1__0 - 0.5 v_x_1__0 - goal_x_1__1 <= -3
 R141: d_y_1__0 + 0.5 v_y_1__0 - goal_y_1__1 <= 66
 R142: - d_y_1__0 - 0.5 v_y_1__0 - goal_y_1__1 <= -66
 R143: d_x_1__1 + 0.5 v_x_1__1 - goal_x_1__2 <= 3
 R144: - d_x_1__1 - 0.5 v_x_1__1 - goal_x_1__2 <= -3
 R145: d_y_1__1 + 0.5 v_y_1__1 - goal_y_1__2 <= 66
 R146: - d_y_1__1 - 0.5 v_y_1__1 - goal_y_1__2 <= -66
 init_d_x_0: d_x_0__0 = -1.5
 init_d_y_0: d_y_0__0 = 39.5
 init_v_x_0: v_x_0__0 = 0
 init_v_y_0: v_y_0__0 = -8
 init_d_x_1: d_x_1__0 = -46.8
 init_d_y_1: d_y_1__0 = -1.5
 init_v_x_1: v_x_1__0 = 3
 init_v_y_1: v_y_1__0 = 8.88178e-16
 qc0: - 32 d_x_1__0 + 32 d_y_1__0 - 10000 b_r_22[0,0] + [ - d_x_1__0 ^2
   - d_y_1__0 ^2 ] >= -9908.25
 qc1: - 32 d_x_1__0 + 32 d_y_1__0 - 10000 b_r_22[0,0] + [ - d_x_1__0 ^2
   - d_y_1__0 ^2 ] <= 91.7499
 qc2: - 32 d_x_1__1 + 32 d_y_1__1 - 10000 b_r_22[0,1] + [ - d_x_1__1 ^2
   - d_y_1__1 ^2 ] >= -9908.25
 qc3: - 32 d_x_1__1 + 32 d_y_1__1 - 10000 b_r_22[0,1] + [ - d_x_1__1 ^2
   - d_y_1__1 ^2 ] <= 91.7499
 qc4: - 32 d_x_1__2 + 32 d_y_1__2 - 10000 b_r_22[0,2] + [ - d_x_1__2 ^2
   - d_y_1__2 ^2 ] >= -9908.25
 qc5: - 32 d_x_1__2 + 32 d_y_1__2 - 10000 b_r_22[0,2] + [ - d_x_1__2 ^2
   - d_y_1__2 ^2 ] <= 91.7499
 qc6: 32 d_x_1__0 - 32 d_y_1__0 - 10000 b_r_23[0,0] + [ d_x_1__0 ^2
   + d_y_1__0 ^2 ] >= -10205.75
 qc7: 32 d_x_1__0 - 32 d_y_1__0 - 10000 b_r_23[0,0] + [ d_x_1__0 ^2
   + d_y_1__0 ^2 ] <= -205.7500999999999
 qc8: 32 d_x_1__1 - 32 d_y_1__1 - 10000 b_r_23[0,1] + [ d_x_1__1 ^2
   + d_y_1__1 ^2 ] >= -10205.75
 qc9: 32 d_x_1__1 - 32 d_y_1__1 - 10000 b_r_23[0,1] + [ d_x_1__1 ^2
   + d_y_1__1 ^2 ] <= -205.7500999999999
 qc10: 32 d_x_1__2 - 32 d_y_1__2 - 10000 b_r_23[0,2] + [ d_x_1__2 ^2
   + d_y_1__2 ^2 ] >= -10205.75
 qc11: 32 d_x_1__2 - 32 d_y_1__2 - 10000 b_r_23[0,2] + [ d_x_1__2 ^2
   + d_y_1__2 ^2 ] <= -205.7500999999999
Bounds
 -100 <= d_x_0__0 <= 100
 -100 <= d_x_0__1 <= 100
 -100 <= d_x_0__2 <= 100
 -100 <= d_y_0__0 <= 100
 -100 <= d_y_0__1 <= 100
 -100 <= d_y_0__2 <= 100
 -8 <= v_x_0__0 <= 8
 -8 <= v_x_0__1 <= 8
 -8 <= v_x_0__2 <= 8
 -8 <= v_y_0__0 <= 8
 -8 <= v_y_0__1 <= 8
 -8 <= v_y_0__2 <= 8
 -30 <= a_x_0__0 <= 30
 -30 <= a_x_0__1 <= 30
 -30 <= a_x_0__2 <= 30
 -30 <= a_y_0__0 <= 30
 -30 <= a_y_0__1 <= 30
 -30 <= a_y_0__2 <= 30
 -100 <= d_x_1__0 <= 100
 -100 <= d_x_1__1 <= 100
 -100 <= d_x_1__2 <= 100
 -100 <= d_y_1__0 <= 100
 -100 <= d_y_1__1 <= 100
 -100 <= d_y_1__2 <= 100
 -8 <= v_x_1__0 <= 8
 -8 <= v_x_1__1 <= 8
 -8 <= v_x_1__2 <= 8
 -8 <= v_y_1__0 <= 8
 -8 <= v_y_1__1 <= 8
 -8 <= v_y_1__2 <= 8
 -30 <= a_x_1__0 <= 30
 -30 <= a_x_1__1 <= 30
 -30 <= a_x_1__2 <= 30
 -30 <= a_y_1__0 <= 30
 -30 <= a_y_1__1 <= 30
 -30 <= a_y_1__2 <= 30
 fuel_x_1__0 <= 30
 fuel_y_1__0 <= 30
 fuel_x_1__1 <= 30
 fuel_y_1__1 <= 30
 -10000 <= goal_x_1__0 <= 10000
 -10000 <= goal_y_1__0 <= 10000
 -10000 <= goal_x_1__1 <= 10000
 -10000 <= goal_y_1__1 <= 10000
 -10000 <= goal_x_1__2 <= 10000
 -10000 <= goal_y_1__2 <= 10000
Binaries
 b_a b_a_1[0,0] b_a_1[0,1] b_a_1[0,2] b_a_2[0,0] b_a_2[0,1] b_a_2[0,2]
 b_a_3[0,0] b_a_3[0,1] b_a_3[0,2] b_a_4[0,0] b_a_4[0,1] b_a_4[0,2]
 b_a_5[0,0] b_a_5[0,1] b_a_5[0,2] b_a_6[0,0] b_a_6[0,1] b_a_6[0,2]
 b_a_7[0,0] b_a_7[0,1] b_a_7[0,2] b_g b_g_9[0,0] b_g_9[0,1] b_g_9[0,2]
 b_g_10[0,0] b_g_10[0,1] b_g_10[0,2] b_g_11[0,0] b_g_11[0,1] b_g_11[0,2]
 b_g_12[0,0] b_g_12[0,1] b_g_12[0,2] b_g_13[0,0] b_g_13[0,1] b_g_13[0,2]
 b_r b_r_15[0,0] b_r_15[0,1] b_r_15[0,2] b_r_16[0,0] b_r_16[0,1]
 b_r_16[0,2] b_r_17[0,0] b_r_17[0,1] b_r_17[0,2] b_r_18[0,0] b_r_18[0,1]
 b_r_18[0,2] b_r_19[0,0] b_r_19[0,1] b_r_19[0,2] b_r_20[0,0] b_r_20[0,1]
 b_r_20[0,2] b_r_21[0,0] b_r_21[0,1] b_r_21[0,2] b_r_22[0,0] b_r_22[0,1]
 b_r_22[0,2] b_r_23[0,0] b_r_23[0,1] b_r_23[0,2] b_r_24[0,0] b_r_24[0,1]
 b_r_24[0,2] b_r_25[0,0] b_r_25[0,1] b_r_25[0,2] b_r_26[0,0] b_r_26[0,1]
 b_r_26[0,2] b_r_27[0,0] b_r_27[0,1] b_r_27[0,2] b_r_28[0,0] b_r_28[0,1]
 b_r_28[0,2] b_r_29[0,0] b_r_29[0,1] b_r_29[0,2] b_r_30[0,0] b_r_30[0,1]
 b_r_30[0,2]
General Constraints
 GC0: b_a_2[0,0] = AND ( b_a_3[0,0] , b_a_4[0,0] )
 GC1: b_a_2[0,1] = AND ( b_a_3[0,1] , b_a_4[0,1] )
 GC2: b_a_2[0,2] = AND ( b_a_3[0,2] , b_a_4[0,2] )
 GC3: b_a_5[0,0] = AND ( b_a_6[0,0] , b_a_7[0,0] )
 GC4: b_a_5[0,1] = AND ( b_a_6[0,1] , b_a_7[0,1] )
 GC5: b_a_5[0,2] = AND ( b_a_6[0,2] , b_a_7[0,2] )
 GC6: b_a_1[0,0] = AND ( b_a_2[0,0] , b_a_5[0,0] )
 GC7: b_a_1[0,1] = AND ( b_a_2[0,1] , b_a_5[0,1] )
 GC8: b_a_1[0,2] = AND ( b_a_2[0,2] , b_a_5[0,2] )
 GC9: b_a = AND ( b_a_1[0,0] , b_a_1[0,1] , b_a_1[0,2] )
 GC10: b_g_9[0,0] = OR ( b_g_10[0,0] , b_g_11[0,0] , b_g_12[0,0] ,
   b_g_13[0,0] )
 GC11: b_g_9[0,1] = OR ( b_g_10[0,1] , b_g_11[0,1] , b_g_12[0,1] ,
   b_g_13[0,1] )
 GC12: b_g_9[0,2] = OR ( b_g_10[0,2] , b_g_11[0,2] , b_g_12[0,2] ,
   b_g_13[0,2] )
 GC13: b_g = AND ( b_g_9[0,0] , b_g_9[0,1] , b_g_9[0,2] )
 GC14: b_r_16[0,0] = AND ( b_r_17[0,0] , b_r_18[0,0] , b_r_19[0,0] ,
   b_r_20[0,0] )
 GC15: b_r_16[0,1] = AND ( b_r_17[0,1] , b_r_18[0,1] , b_r_19[0,1] ,
   b_r_20[0,1] )
 GC16: b_r_16[0,2] = AND ( b_r_17[0,2] , b_r_18[0,2] , b_r_19[0,2] ,
   b_r_20[0,2] )
 GC17: b_r_21[0,0] = AND ( b_r_22[0,0] , b_r_23[0,0] , b_r_24[0,0] ,
   b_r_25[0,0] )
 GC18: b_r_21[0,1] = AND ( b_r_22[0,1] , b_r_23[0,1] , b_r_24[0,1] ,
   b_r_25[0,1] )
 GC19: b_r_21[0,2] = AND ( b_r_22[0,2] , b_r_23[0,2] , b_r_24[0,2] ,
   b_r_25[0,2] )
 GC20: b_r_26[0,0] = AND ( b_r_27[0,0] , b_r_28[0,0] , b_r_29[0,0] ,
   b_r_30[0,0] )
 GC21: b_r_26[0,1] = AND ( b_r_27[0,1] , b_r_28[0,1] , b_r_29[0,1] ,
   b_r_30[0,1] )
 GC22: b_r_26[0,2] = AND ( b_r_27[0,2] , b_r_28[0,2] , b_r_29[0,2] ,
   b_r_30[0,2] )
 GC23: b_r_15[0,0] = OR ( b_r_16[0,0] , b_r_21[0,0] , b_r_26[0,0] )
 GC24: b_r_15[0,1] = OR ( b_r_16[0,1] , b_r_21[0,1] , b_r_26[0,1] )
 GC25: b_r_15[0,2] = OR ( b_r_16[0,2] , b_r_21[0,2] , b_r_26[0,2] )
 GC26: b_r = AND ( b_r_15[0,0] , b_r_15[0,1] , b_r_15[0,2] )
End
